This is Ipopt version 3.14.14, running with linear solver MUMPS 5.6.2.

Number of nonzeros in equality constraint Jacobian...:   680020
Number of nonzeros in inequality constraint Jacobian.:    40000
Number of nonzeros in Lagrangian Hessian.............:        0

Total number of variables............................:   180017
                     variables with only lower bounds:        1
                variables with lower and upper bounds:    40006
                     variables with only upper bounds:        0
Total number of equality constraints.................:   180014
Total number of inequality constraints...............:    20000
        inequality constraints with only lower bounds:        0
   inequality constraints with lower and upper bounds:        0
        inequality constraints with only upper bounds:    20000

iter    objective    inf_pr   inf_du lg(mu)  ||d||  lg(rg) alpha_du alpha_pr  ls
   0  1.0000000e+05 1.66e+01 1.00e+00   0.0 0.00e+00    -  0.00e+00 0.00e+00   0
   1  9.9999997e+04 1.65e+01 5.24e+04   2.2 1.52e+03    -  9.92e-01 3.13e-03f  2
   2  9.9999994e+04 1.65e+01 2.07e+05  -3.5 1.51e+03    -  3.15e-03 3.16e-03h  1
   3  9.9999965e+04 1.60e+01 2.70e+06   3.4 1.57e+03    -  1.00e+00 2.64e-02f  5
   4  9.9999918e+04 5.49e+01 7.21e+08   3.4 1.49e+03    -  6.80e-01 4.65e-02h  1
   5  9.9999915e+04 5.49e+01 5.25e+08   5.2 1.49e+03    -  1.00e+00 2.90e-03h  3
   6  9.9999826e+04 4.92e+01 1.11e+09   5.2 1.33e+03    -  8.93e-01 1.23e-01H  1
   7  9.9999760e+04 6.80e+01 7.90e+08   5.5 1.03e+03    -  1.00e+00 1.03e-01h  4
   8  9.9999748e+04 6.62e+01 9.14e+08   6.1 8.69e+02    -  3.87e-01 5.87e-02h  3
   9  9.9999743e+04 6.53e+01 1.17e+09   5.8 7.35e+02    -  9.19e-01 2.16e-02h  3
iter    objective    inf_pr   inf_du lg(mu)  ||d||  lg(rg) alpha_du alpha_pr  ls
  10  9.9999706e+04 7.02e+01 1.04e+09   5.9 7.46e+02    -  1.03e-01 1.18e-01h  2
  11  9.9999673e+04 6.82e+01 1.81e+09   5.8 6.43e+02    -  6.14e-01 8.70e-02H  1
  12  9.9999659e+04 6.45e+01 3.60e+09   5.5 5.67e+02    -  5.34e-02 2.44e-02H  1
  13  9.9999653e+04 6.33e+01 1.38e+10   5.7 5.82e+02    -  9.93e-01 2.04e-02h  1
  14  9.9999651e+04 6.30e+01 8.12e+09   4.1 6.09e+02    -  2.34e-01 2.22e-03H  1
  15  9.9999650e+04 6.28e+01 4.45e+10   5.2 6.23e+02    -  2.42e-01 1.40e-03H  1
  16  9.9999611e+04 7.23e+01 1.48e+10   5.1 6.21e+02    -  8.00e-01 1.71e-01h  3
  17  9.9999516e+04 4.42e+02 7.05e+09   5.8 1.10e+03    -  1.00e+00 3.11e-01f  2
  18  9.9999531e+04 3.84e+02 1.42e+09   6.7 1.69e+03    -  1.00e+00 1.04e-01h  2
  19  9.9999566e+04 3.34e+02 7.21e+09   5.3 9.27e+02    -  8.11e-02 1.12e-01h  1
iter    objective    inf_pr   inf_du lg(mu)  ||d||  lg(rg) alpha_du alpha_pr  ls
  20  9.9999576e+04 3.33e+02 9.50e+09   7.1 9.54e+02    -  1.00e+00 5.59e-03h  8
  21  9.9999627e+04 3.24e+02 1.42e+10   7.3 8.97e+02    -  1.40e-02 2.56e-02h  5
  22  9.9999697e+04 3.10e+02 1.89e+10   7.0 7.93e+02    -  1.76e-01 4.41e-02h  4
  23  9.9999774e+04 2.95e+02 1.94e+10   6.3 7.34e+02    -  7.83e-02 5.11e-02h  4
  24  9.9999845e+04 2.79e+02 1.98e+10   5.6 6.98e+02    -  3.18e-01 5.36e-02h  4
  25  9.9999892e+04 2.68e+02 1.99e+10   4.9 6.43e+02    -  2.75e-01 3.92e-02h  5
  26  1.0000015e+05 2.91e+02 2.66e+10   4.2 6.25e+02    -  3.82e-01 3.07e-01H  1
  27  1.0000019e+05 2.74e+02 2.55e+10   4.2 6.60e+02    -  5.99e-01 5.27e-02h  1
  28  1.0000019e+05 2.73e+02 2.54e+10   4.2 5.47e+02    -  6.95e-02 4.00e-03h  1
  29  1.0000020e+05 2.67e+02 2.49e+10   4.2 6.11e+02    -  3.25e-02 2.02e-02h  3
iter    objective    inf_pr   inf_du lg(mu)  ||d||  lg(rg) alpha_du alpha_pr  ls
  30  1.0000020e+05 2.61e+02 2.44e+10   4.2 6.12e+02    -  4.86e-02 2.16e-02h  2
  31  1.0000020e+05 2.61e+02 2.43e+10   4.2 5.96e+02    -  4.77e-02 2.72e-03h  4
  32  1.0000020e+05 2.59e+02 2.42e+10   4.2 5.87e+02    -  3.11e-04 5.50e-03f  4
  33  1.0000021e+05 2.57e+02 2.40e+10   4.2 6.14e+02    -  6.90e-02 7.75e-03h  7
  34  1.0000035e+05 1.16e+02 1.16e+10   4.2 6.12e+02    -  9.90e-03 4.66e-01h  1
  35  1.0000035e+05 1.15e+02 1.16e+10   3.5 3.06e+02    -  1.67e-01 6.50e-03h  1
  36  1.0000033e+05 7.55e+01 9.10e+09   3.5 3.08e+02    -  2.33e-03 3.43e-01h  1
  37  1.0000028e+05 4.78e+01 6.87e+09   3.5 1.94e+02    -  6.38e-01 3.55e-01f  1
  38  1.0000027e+05 4.74e+01 6.84e+09   3.5 1.33e+02    -  5.57e-02 7.74e-03h  1
  39  1.0000024e+05 4.42e+01 6.53e+09   3.5 1.57e+02    -  3.16e-04 6.71e-02f  1
iter    objective    inf_pr   inf_du lg(mu)  ||d||  lg(rg) alpha_du alpha_pr  ls
  40  9.9999693e+04 2.53e+01 6.40e+07   3.5 1.01e+02    -  8.30e-01 1.00e+00f  1
  41  9.9998836e+04 2.84e+00 4.16e+06   4.1 2.91e+01    -  9.33e-01 1.00e+00f  1
  42  9.9997864e+04 1.61e-03 3.59e+04  -1.8 2.89e+00    -  9.81e-01 1.00e+00h  1
  43  9.8891476e+04 4.12e-07 3.52e+02  -3.6 1.11e+03    -  9.90e-01 1.00e+00f  1
  44  9.6257408e+04 1.31e-02 1.03e+02  -5.5 2.63e+03    -  9.88e-01 1.00e+00f  1
  45  9.3545173e+04 1.77e-01 1.18e+02  -3.1 2.71e+03    -  9.98e-01 1.00e+00f  1
  46  9.3544173e+04 6.81e-08 1.00e+00  -4.1 1.00e+00    -  1.00e+00 1.00e+00f  1
  47  9.3543673e+04 2.38e-07 1.71e-02 -10.1 5.00e-01  -4.0 9.90e-01 1.00e+00f  1
  48  9.3542173e+04 2.04e-06 1.18e-03  -8.0 1.50e+00  -4.5 1.00e+00 1.00e+00f  1
  49  1.1830845e+02 3.95e-01 5.65e-01 -11.0 2.59e+06    -  5.93e-01 3.61e-02f  1
iter    objective    inf_pr   inf_du lg(mu)  ||d||  lg(rg) alpha_du alpha_pr  ls
  50  1.1730851e+02 2.26e-06 1.73e+01  -6.5 1.02e+00    -  3.67e-02 1.00e+00h  1
  51  8.7504954e+00 2.26e-06 3.82e+01  -8.1 7.37e+05    -  1.00e+00 1.47e-04f  1
  52  7.6649159e+00 2.25e-06 1.74e+01  -7.9 5.01e+02    -  9.98e-01 2.17e-03f  1
  53  7.6540594e+00 2.24e-06 1.77e+01  -6.4 2.40e+00    -  1.00e+00 4.53e-03f  1
  54  7.6539393e+00 2.05e-06 1.65e+01  -5.4 3.02e-02    -  1.00e+00 8.70e-02h  1
  55  7.6538593e+00 1.06e-06 3.40e+00  -6.1 1.95e-02    -  1.00e+00 9.85e-01h  1
  56  7.6526680e+00 2.05e-01 2.38e+00  -7.5 9.67e-01    -  1.00e+00 9.34e-01h  1
  57  7.6403389e+00 4.20e+00 1.82e+00  -8.4 9.53e+00    -  9.93e-01 1.00e+00h  1
  58  7.6229371e+00 4.42e+00 9.21e+00  -9.7 9.69e+00    -  1.00e+00 1.00e+00h  1
  59  7.6095039e+00 4.03e+00 9.08e+00  -7.7 7.03e+01    -  1.00e+00 8.74e-02h  1
iter    objective    inf_pr   inf_du lg(mu)  ||d||  lg(rg) alpha_du alpha_pr  ls
  60  7.6093644e+00 4.03e+00 9.07e+00  -5.7 8.82e+01    -  1.00e+00 6.46e-04h  1
  61  7.5886851e+00 3.47e+00 3.39e+00  -3.7 9.87e+00    -  6.50e-02 1.00e+00f  1
  62  7.5032039e+00 2.41e+01 1.68e+00  -3.8 3.94e+01    -  1.00e+00 8.96e-01h  1
  63  7.5191136e+00 6.39e+00 5.75e-01  -3.5 1.86e+01    -  1.01e-01 1.00e+00h  1
  64  7.5541205e+00 1.63e-02 2.69e+02  -3.3 6.39e+00    -  1.32e-01 1.00e+00h  1
  65  7.5157369e+00 1.42e-02 2.29e+02  -5.5 2.99e-01    -  1.00e+00 1.29e-01h  1
  66  7.5152202e+00 1.22e-02 2.13e+02  -5.8 1.46e-01    -  1.00e+00 1.38e-01h  1
  67  7.5150317e+00 9.38e-03 1.57e+02  -5.8 1.15e-01    -  9.96e-01 2.33e-01h  1
  68  7.5141148e+00 4.25e-05 2.15e+01  -7.0 1.34e-01    -  1.00e+00 1.00e+00h  1
  69  7.5057751e+00 4.25e-01 2.15e+01  -5.8 1.15e+03    -  1.00e+00 1.06e-03f  1
iter    objective    inf_pr   inf_du lg(mu)  ||d||  lg(rg) alpha_du alpha_pr  ls
  70  7.4944440e+00 5.52e-01 7.89e+00  -4.2 2.40e+00    -  1.00e+00 1.00e+00h  1
  71  7.4817672e+00 7.24e-01 8.47e+00  -4.2 2.67e+00    -  1.00e+00 1.00e+00h  1
  72  7.3610331e+00 1.39e+01 2.20e+00  -3.7 3.69e+01    -  7.53e-01 7.09e-01h  1
  73  7.0999428e+00 2.81e+01 1.30e+00  -3.8 5.32e+01    -  2.40e-01 1.00e+00h  1
  74  7.1699635e+00 6.39e+00 2.96e-01  -3.6 2.85e+01    -  3.70e-01 1.00e+00h  1
  75  7.1679098e+00 1.63e-02 1.01e+02  -3.7 6.37e+00    -  2.76e-01 1.00e+00h  1
  76  7.1640630e+00 1.47e-02 8.44e+01  -5.6 1.36e-01    -  1.00e+00 9.76e-02h  1
  77  7.1619334e+00 2.86e-03 5.27e+01  -4.6 3.63e-01    -  1.00e+00 8.05e-01h  1
  78  7.1595755e+00 1.27e-03 2.10e+01  -6.1 5.73e-01    -  1.00e+00 5.57e-01h  1
  79  7.1595509e+00 1.25e-03 2.06e+01  -7.8 2.30e-01    -  1.00e+00 1.48e-02h  1
iter    objective    inf_pr   inf_du lg(mu)  ||d||  lg(rg) alpha_du alpha_pr  ls
  80  7.1594124e+00 2.80e-06 1.45e+01  -7.3 2.85e-02    -  1.00e+00 1.00e+00h  1
  81  7.0850322e+00 9.08e+00 1.40e+01  -6.3 3.88e+02    -  1.00e+00 3.96e-02f  1
  82  7.0842228e+00 9.07e+00 1.40e+01  -6.3 5.45e+02    -  1.74e-01 3.08e-04h  1
  83  6.9629921e+00 9.99e+00 5.39e+01  -4.3 2.55e+01    -  6.74e-04 1.00e+00h  1
  84  6.7357257e+00 2.51e+01 4.61e+01  -4.2 3.21e+02    -  1.00e+00 1.47e-01h  1
  85  6.7991570e+00 5.55e+00 1.93e-01  -3.7 1.76e+01    -  9.62e-01 1.00e+00h  1
  86  6.7989970e+00 6.86e-04 3.51e+01  -3.9 5.55e+00    -  1.00e+00 1.00e+00h  1
  87  6.7979574e+00 4.36e-04 7.10e+01  -5.8 3.59e-01    -  1.00e+00 3.65e-01h  1
  88  6.7978424e+00 2.32e-04 3.44e+01  -6.8 3.35e-02    -  1.00e+00 4.67e-01h  1
  89  6.7977589e+00 9.05e-06 7.26e+00  -6.9 1.78e-02    -  1.00e+00 9.61e-01h  1
iter    objective    inf_pr   inf_du lg(mu)  ||d||  lg(rg) alpha_du alpha_pr  ls
  90  6.7953520e+00 8.97e-04 1.25e+01  -8.5 4.98e-01    -  1.00e+00 1.00e+00h  1
  91  6.7420164e+00 4.91e+00 1.21e+01  -7.7 2.95e+02    -  1.00e+00 3.73e-02h  1
  92  6.7415037e+00 3.79e+00 9.33e+00  -5.7 4.90e+00  -5.0 1.00e+00 2.28e-01h  1
  93  6.7540555e+00 1.20e-01 8.01e-02  -4.3 3.85e+00    -  9.95e-01 1.00e+00h  1
  94  6.7416793e+00 4.16e-01 3.46e-02  -4.4 2.87e+00    -  9.49e-01 9.74e-01h  1
  95  6.7414960e+00 7.29e-05 9.44e-03  -4.6 5.27e-01    -  9.22e-01 1.00e+00h  1
  96  6.7413733e+00 2.33e-01 5.82e-02  -4.6 1.13e+00    -  1.00e+00 1.00e+00h  1
  97  6.7413362e+00 1.18e-07 2.35e-01  -5.5 2.35e-01    -  1.00e+00 1.00e+00h  1
  98  6.7413146e+00 9.48e-08 3.18e-01  -7.3 1.54e-02    -  1.00e+00 3.19e-01h  1
  99  6.7413137e+00 2.79e-08 2.25e-01  -8.9 3.58e-03    -  1.00e+00 9.92e-01h  1
iter    objective    inf_pr   inf_du lg(mu)  ||d||  lg(rg) alpha_du alpha_pr  ls
 100  6.7412467e+00 9.08e-02 2.70e-01  -9.5 4.91e-01    -  1.00e+00 1.00e+00h  1
 101  6.7411763e+00 5.24e-02 2.78e-01 -10.6 5.00e-01    -  1.00e+00 1.00e+00h  1
 102  6.7411030e+00 5.19e-02 2.85e-01 -11.0 5.10e-01    -  1.00e+00 1.00e+00h  1
 103  6.7411022e+00 9.47e-09 1.18e+00  -9.0 5.19e-02    -  3.16e-01 1.00e+00h  1
 104  6.7411020e+00 9.42e-09 1.71e+00 -10.9 9.87e-02    -  1.00e+00 1.00e-02h  1
 105  6.7410998e+00 5.29e-07 2.84e-01 -10.9 1.56e-02    -  1.00e+00 1.00e+00h  1
 106  6.7410975e+00 5.29e-07 2.84e-01 -10.9 1.56e-02    -  1.00e+00 1.00e+00h  1
 107  6.7410952e+00 5.30e-07 2.84e-01 -11.0 1.56e-02    -  1.00e+00 1.00e+00h  1
 108  6.7410952e+00 1.26e-12 1.04e-07 -11.0 8.69e-07    -  1.00e+00 1.00e+00h  1

Number of Iterations....: 108

                                   (scaled)                 (unscaled)
Objective...............:   6.7410952154512049e+00    6.7410952154512049e+00
Dual infeasibility......:   1.0365569204521386e-07    1.0365569204521386e-07
Constraint violation....:   1.2647660696529783e-12    1.2647660696529783e-12
Variable bound violation:   1.4998189890036429e-07    1.4998189890036429e-07
Complementarity.........:   1.0000073841405075e-11    1.0000073841405075e-11
Overall NLP error.......:   1.0365569204521386e-07    1.0365569204521386e-07


Number of objective function evaluations             = 208
Number of objective gradient evaluations             = 109
Number of equality constraint evaluations            = 208
Number of inequality constraint evaluations          = 208
Number of equality constraint Jacobian evaluations   = 109
Number of inequality constraint Jacobian evaluations = 109
Number of Lagrangian Hessian evaluations             = 0
Total seconds in IPOPT                               = 71.802

EXIT: Optimal Solution Found.
